1637781
14 44 62420
44 28 76431
28 50 10810
50 53 48925
53 37 6554
37 62 30446
62 39 8740
39 51 11004
51 35 8926
35 68 19070
68 8 34471
8 36 11459
36 59 8563
59 16 10880
16 63 14689
63 15 38600
15 58 6904
58 9 1777
9 17 5356
17 27 1445
27 45 8214
45 2 15587
2 48 7938
48 4 7248
4 20 4440
20 65 13332
65 13 18316
13 54 13536
54 47 18520
47 24 15612
24 61 5437
61 21 26988
21 3 17216
3 42 13084
42 12 4831
12 1 10465
1 32 13128
32 56 1427
56 40 3489
40 5 3130
5 19 15574
19 49 8895
49 23 4353
23 60 7498
60 29 6419
29 25 9940
25 30 1249
30 41 5056
41 6 10602
6 11 47990
11 66 13370
66 26 57991
26 55 61621
55 46 30985
46 34 36286
34 64 57563
64 67 14572
67 38 15200
38 7 28523
7 43 52950
43 31 116978
31 22 39447
22 52 46274
52 33 101509
33 57 88918
57 18 27906
18 10 28652
10 14 62052
